50
13629

865 865
395 395
777 777
912 912
431 431
42 42
266 266
989 989
524 524
498 498
415 415
941 941
803 803
850 850
311 311
992 992
489 489
367 367
598 598
914 914
930 930
224 224
517 517
143 143
289 289
144 144
774 774
98 98
634 634
819 819
257 257
932 932
546 546
723 723
830 830
617 617
924 924
151 151
318 318
102 102
748 748
76 76
921 921
871 871
701 701
339 339
484 484
574 574
104 104
363 363
